20J7M/DAT/20J7MULL-18.dat
20 7
4.3944 4.3944
3.2148 3.2148
22.8592 22.8592
3.8091 3.8091
29.3687 29.3687
40.2578 40.2578
26.0068 26.0068
32.0507 32.0507
20.7282 20.7282
1.8295 1.8295
38.399 38.399
29.0687 29.0687
29.3209 29.3209
46.6352 46.6352
41.7538 41.7538
42.4644 42.4644
25.7872 25.7872
9.869 9.869
46.3515 46.3515
0.7121 0.7121
70.6973