20J7M/SOL/20J7MULL-18.sol
solution status: optimal solution found
objective value:                     77.1916857142857
x#1#2                                               1 	(obj:0)
x#2#5                                               1 	(obj:0)
x#3#7                                               1 	(obj:0)
x#4#1                               0.869883982513481 	(obj:0)
x#4#3                               0.130116017486519 	(obj:0)
x#5#7                                               1 	(obj:0)
x#6#7                                               1 	(obj:0)
x#7#6                                               1 	(obj:0)
x#8#6                               0.194270789766799 	(obj:0)
x#8#7                               0.805729210233201 	(obj:0)
x#9#1                               0.025424631011762 	(obj:0)
x#9#4                               0.974575368988238 	(obj:0)
x#10#2                              0.872762708007369 	(obj:0)
x#10#5                              0.127237291992631 	(obj:0)
x#11#5                                              1 	(obj:0)
x#12#3                                              1 	(obj:0)
x#13#3                                              1 	(obj:0)
x#14#1                              0.897187335331286 	(obj:0)
x#14#2                              0.102812664668714 	(obj:0)
x#15#6                                              1 	(obj:0)
x#16#5                             0.0522378685746671 	(obj:0)
x#16#6                              0.947762131425333 	(obj:0)
x#17#2                                              1 	(obj:0)
x#18#3                                              1 	(obj:0)
x#19#4                                              1 	(obj:0)
x#20#7                                              1 	(obj:0)
z                                    77.1916857142857 	(obj:1)
